webassembly/ejemplos_dzn/folder12_json_26.dzn
TERM = { '.', 's(2)', 's(4)', 'in_1', 'local_0', 'local_1', 'in_6', 'in_2', 'in_4', 'in_3', 's(1)', 's(0)', 'in_5', 's(3)', 'in_0'};
null = '.';
s = 12;
n = 13;
ndeps = 5;
max_registers_sz = 5;
NR = 2;
registers = [|'local_0', 'in_6', |'local_1', 's(4)'|];
dependencies = [|'i32.load16_u_0', 'i32.store_5', |'i32.store_5', 'i32.load16_u_8', |'i32.load16_u_1', 'i32.store_5', |'i32.load8_u_3', 'i32.store_5', |'i32.load16_u_8', 'call[function_index(0)]_10'|];
GET_ENUM = { GET1, GET2, GET3, GET4, GET5, GET6, GET7};
SET_ENUM = { SET1, SET2, SET3, SET4, SET5, SET6, SET7};
TEE_ENUM = { TEE1, TEE2, TEE3, TEE4, TEE5, TEE6, TEE7};
N = 7;
OP = { 'call[function_index(0)]_10', 'i32.load16_u_0', 'i32.load16_u_1', 'i32.load8_u_3', 'i32.add_0', 'i32.store_5', 'i32.load16_u_8' };
in_ops = [3, 1, 1, 1, 2, 2, 1 ];
out_ops = [0, 1, 1, 1, 1, 0, 1 ];
in1 = ['s(4)', 'in_0', 's(0)', 'local_1', 's(2)', 's(3)', 'in_3' ];
in2 = ['in_4', '.', '.', '.', 's(1)', 'in_1', '.' ];
in3 = ['in_5', '.', '.', '.', '.', '.', '.' ];
out1 = ['.', 's(0)', 's(1)', 's(2)', 's(3)', '.', 's(4)' ];
out2 = ['.', '.', '.', '.', '.', '.', '.' ];
out3 = ['.', '.', '.', '.', '.', '.', '.' ];
comm = [false, false, false, false, true, false, false ];
gas = [1, 1, 1, 1, 1, 1, 1 ];
sz = [1, 1, 1, 1, 1, 1, 1 ];
stor = [true, false, false, false, false, true, false ];
lb = [ 1, 1, 1, 1, 1, 1, 1 ];
ub = [ 12, 12, 12, 12, 12, 12, 12 ];
startstack = [ 'in_0', 'in_1', 'in_2', 'in_3', 'in_4', 'in_5', 'in_6', null, null, null, null, null, null ];
endstack = [ null, null, null, null, null, null, null, null, null, null, null, null, null ];
