webassembly/ejemplos_results/12/folder12_json_26.txt
value = 12;
fgas = [1, 1, 1, 2, 2, 1, 1, 1, 1, 1, 1, 1];
fsize = [1, 1, 1, 1, 1, 1, 1, 1, 1, 1, 1, 1];
states = 
[|    in_0,   in_1, in_2, in_3, in_4, in_5, in_6, '.', '.', '.', '.', '.', '.'
 |  's(0)',   in_1, in_2, in_3, in_4, in_5, in_6, '.', '.', '.', '.', '.', '.'
 |  's(1)',   in_1, in_2, in_3, in_4, in_5, in_6, '.', '.', '.', '.', '.', '.'
 |    in_1,   in_2, in_3, in_4, in_5, in_6,  '.', '.', '.', '.', '.', '.', '.'
 |    in_2,   in_3, in_4, in_5, in_6,  '.',  '.', '.', '.', '.', '.', '.', '.'
 |    in_3,   in_4, in_5, in_6,  '.',  '.',  '.', '.', '.', '.', '.', '.', '.'
 |  's(4)',   in_4, in_5, in_6,  '.',  '.',  '.', '.', '.', '.', '.', '.', '.'
 | local_1, 's(1)', in_0,  '.',  '.',  '.',  '.', '.', '.', '.', '.', '.', '.'
 |  's(2)', 's(1)', in_0,  '.',  '.',  '.',  '.', '.', '.', '.', '.', '.', '.'
 |  's(3)',   in_1,  '.',  '.',  '.',  '.',  '.', '.', '.', '.', '.', '.', '.'
 |    in_6, 's(4)',  '.',  '.',  '.',  '.',  '.', '.', '.', '.', '.', '.', '.'
 |  's(4)',    '.',  '.',  '.',  '.',  '.',  '.', '.', '.', '.', '.', '.', '.'
 |     '.',    '.',  '.',  '.',  '.',  '.',  '.', '.', '.', '.', '.', '.', '.'
 |];
register_states = 
[| local_0, local_1, '.', '.', '.', '.', '.'
 | local_0, local_1, '.', '.', '.', '.', '.'
 | local_0, local_1, '.', '.', '.', '.', '.'
 |  's(1)', local_1, '.', '.', '.', '.', '.'
 |  's(1)', local_1, '.', '.', '.', '.', '.'
 |  's(1)', local_1, '.', '.', '.', '.', '.'
 |  's(1)', local_1, '.', '.', '.', '.', '.'
 |  's(1)', local_1, '.', '.', '.', '.', '.'
 |  's(1)', local_1, '.', '.', '.', '.', '.'
 |  's(1)', local_1, '.', '.', '.', '.', '.'
 |  's(1)', local_1, '.', '.', '.', '.', '.'
 |    in_6, local_1, '.', '.', '.', '.', '.'
 |    in_6,  's(4)', '.', '.', '.', '.', '.'
 |];
program = [O('i32.load16_u_0'), O('i32.load16_u_1'), S(SET1), POP, POP, O('i32.load16_u_8'), O('call[function_index(0)]_10'), O('i32.load8_u_3'), O('i32.add_0'), O('i32.store_5'), S(SET1), S(SET2)];
% time elapsed: 0.47 s
----------
==========
% time elapsed: 0.50 s
% [value > 11]
